
List of user-set options:

                                    Name   Value                used
                           compl_inf_tol = 1                     yes
                         constr_viol_tol = 1                     yes
                            dual_inf_tol = 1000                  yes
                           linear_solver = ma97                  yes
                              ma86_small = 1e-30                  no
                                  ma86_u = 0.0001                 no
                              ma97_order = best                  yes
                              ma97_small = 1e-30                 yes
                            ma97_switch1 = at_start              yes
                            ma97_switch2 = od_hd_reuse           yes
                                  ma97_u = 1e-06                 yes
                               ma97_umax = 0.5                   yes
                                max_iter = 1000                  yes
                    max_refinement_steps = 20                    yes
                    min_refinement_steps = 5                     yes
                                 mu_init = 1e-06                 yes
           mu_superlinear_decrease_power = 1.25                  yes
                   nlp_scaling_min_value = 1e-08                 yes
                        option_file_name = Preset_Case_72_pf.opt  yes
                             output_file = ./tmp/Preset_Case_72_pf.output  yes
                      print_user_options = yes                   yes
        required_infeasibility_reduction = 1                      no
                                     tol = 1e-08                 yes
                   warm_start_bound_frac = 1e-20                 yes
                   warm_start_bound_push = 1e-20                 yes
                   warm_start_init_point = yes                   yes
              warm_start_mult_bound_push = 1e-20                 yes
                warm_start_mult_init_max = 1e+40                 yes
             warm_start_slack_bound_frac = 1e-20                 yes
             warm_start_slack_bound_push = 1e-20                 yes

******************************************************************************
This program contains Ipopt, a library for large-scale nonlinear optimization.
 Ipopt is released as open source code under the Eclipse Public License (EPL).
         For more information visit http://projects.coin-or.org/Ipopt
******************************************************************************

This is Ipopt version 3.12.10, running with linear solver ma97.

Number of nonzeros in equality constraint Jacobian...:   123442
Number of nonzeros in inequality constraint Jacobian.:      213
Number of nonzeros in Lagrangian Hessian.............:    49069

Total number of variables............................:    31591
                     variables with only lower bounds:    12912
                variables with lower and upper bounds:    15130
                     variables with only upper bounds:        0
Total number of equality constraints.................:    31483
Total number of inequality constraints...............:       25
        inequality constraints with only lower bounds:        4
   inequality constraints with lower and upper bounds:        0
        inequality constraints with only upper bounds:       21

iter    objective    inf_pr   inf_du lg(mu)  ||d||  lg(rg) alpha_du alpha_pr  ls
   0 -5.2985941e+00 4.05e-03 1.02e+00  -6.0 0.00e+00    -  0.00e+00 0.00e+00   0
   1 -5.3053341e+00 4.75e+00 2.44e+01  -6.0 4.55e+05    -  6.86e-05 7.37e-04h  1
   2 -5.3062640e+00 4.75e+00 2.54e+01  -6.0 2.67e+05    -  9.39e-03 2.33e-04f  1
   3 -5.3041626e+00 4.74e+00 2.50e+01  -6.0 2.45e+04    -  5.58e-08 2.12e-03h  2
   4 -5.3041772e+00 4.73e+00 3.93e+01  -6.0 3.39e+02  -4.0 1.88e-02 1.85e-03h  1
   5 -5.3042057e+00 4.73e+00 1.88e+03  -6.0 3.39e+02  -4.5 4.57e-02 4.58e-04h  1
   6 -5.3022661e+00 4.72e+00 3.38e+05  -6.0 1.49e+03  -4.1 1.18e-04 1.14e-03h  1
   7 -5.2996554e+00 4.69e+00 3.12e+05  -6.0 2.50e+02  -4.5 1.71e-04 7.23e-03h  6
   8 -5.2982173e+00 4.68e+00 3.07e+05  -6.0 2.10e+02  -4.1 7.49e-03 3.15e-03h  3
   9 -5.2978162e+00 4.67e+00 3.02e+05  -6.0 2.24e+02  -4.6 1.55e-02 1.12e-03h  1
iter    objective    inf_pr   inf_du lg(mu)  ||d||  lg(rg) alpha_du alpha_pr  ls
  10 -5.2977263e+00 4.67e+00 2.94e+05  -6.0 2.75e+02  -5.1 3.33e-02 2.96e-04h 11
  11 -5.3108659e+00 4.28e+00 2.64e+05  -6.0 4.18e+02  -5.5 1.09e-01 8.30e-02h  1
  12 -5.3122374e+00 4.08e+00 2.43e+05  -6.0 3.43e+02  -6.0 1.09e-01 4.75e-02h  1
  13 -5.3656762e+00 3.80e+00 2.08e+05  -6.0 5.92e+03    -  1.74e-01 6.95e-02h  1
  14 -5.3704984e+00 3.80e+00 2.06e+05  -6.0 5.54e+02  -5.6 1.04e-02 2.05e-03h  1
  15 -5.3704983e+00 3.80e+00 1.85e+05  -6.0 2.75e+02  -4.3 3.18e-02 5.37e-07h  2
  16 -5.3331059e+00 3.76e+00 1.82e+05  -6.0 4.68e+03    -  4.50e-02 9.55e-03h  3
  17 -5.4047166e+00 3.63e+00 1.64e+05  -6.0 5.72e+03    -  1.23e-01 3.89e-02h  1
  18 -5.5222237e+00 6.50e+00 1.27e+05  -6.0 3.28e+03    -  2.67e-01 1.70e-01h  1
  19 -5.5260305e+00 6.08e+00 1.10e+05  -6.0 1.77e+02  -4.7 1.15e-01 6.46e-02h  1
iter    objective    inf_pr   inf_du lg(mu)  ||d||  lg(rg) alpha_du alpha_pr  ls
  20 -5.6032672e+00 1.20e+00 4.69e+04  -6.0 1.59e+02  -5.2 8.97e-02 8.02e-01h  1
  21 -5.6268948e+00 8.79e-01 4.32e+04  -6.0 7.33e+01  -5.7 5.76e-01 2.70e-01h  1
  22 -5.6644618e+00 6.01e-01 2.67e+04  -6.0 1.35e+02  -6.2 1.59e-01 3.16e-01h  1
  23 -5.8409732e+00 6.50e+00 1.05e+03  -6.0 1.81e+02  -6.6 7.69e-01 1.00e+00h  1
  24 -5.8555882e+00 1.16e+01 1.48e+04  -6.0 2.69e+03    -  2.85e-02 3.20e-01h  1
  25 -5.8493769e+00 9.11e+00 2.28e+04  -6.0 1.69e+03    -  5.48e-01 6.32e-01H  1
  26 -5.8313769e+00 4.70e+00 2.40e+02  -6.0 5.34e+02    -  1.00e+00 1.00e+00h  1
  27 -5.8376392e+00 1.86e+00 2.52e+05  -6.0 1.23e+02    -  1.00e+00 6.04e-01h  1
  28r-5.8376392e+00 1.86e+00 1.00e+03   0.0 0.00e+00    -  0.00e+00 3.11e-07R  2
  29r-5.8441190e+00 1.86e+00 1.00e+03   0.0 1.50e+04    -  6.92e-06 1.66e-06f  1
iter    objective    inf_pr   inf_du lg(mu)  ||d||  lg(rg) alpha_du alpha_pr  ls
  30 -5.8437528e+00 1.78e+00 1.22e+06  -6.0 8.90e+00    -  8.00e-01 4.42e-02h  1
  31 -5.8411975e+00 1.21e+00 8.90e+06  -6.0 1.21e+01    -  4.42e-02 3.21e-01h  1
  32 -5.8360159e+00 2.22e-03 2.80e+02  -6.0 8.38e+00    -  5.52e-01 1.00e+00h  1
  33 -5.8366339e+00 1.75e-04 9.43e+00  -6.0 1.26e+00    -  9.84e-01 1.00e+00h  1
  34 -5.8464308e+00 9.51e-02 5.81e+01  -6.0 5.27e+01    -  6.83e-01 9.21e-01h  1
  35 -5.8452753e+00 2.94e-02 4.28e+01  -6.0 2.02e+01    -  7.53e-01 1.00e+00h  1
  36 -5.8506450e+00 5.76e-01 2.08e+02  -6.0 1.51e+03    -  1.19e-01 3.02e-02h  1
  37 -5.8522856e+00 4.77e-01 1.48e+01  -6.0 1.25e+02    -  9.13e-01 1.00e+00h  1
  38 -5.8557280e+00 1.33e+00 1.45e+01  -6.0 4.37e+02    -  3.84e-01 4.27e-01h  1
  39 -5.8559922e+00 1.25e+00 1.40e+04  -6.0 4.86e+02    -  1.11e-03 5.75e-02h  1
iter    objective    inf_pr   inf_du lg(mu)  ||d||  lg(rg) alpha_du alpha_pr  ls
  40 -5.8561411e+00 1.25e+00 5.93e+03  -6.0 1.17e+03    -  2.78e-01 9.30e-03h  1
  41 -5.8624334e+00 1.62e+00 1.23e+03  -6.0 2.34e+02    -  6.97e-02 1.00e+00h  1
  42 -5.8669744e+00 1.20e+00 4.06e+03  -6.0 2.28e+02    -  6.78e-01 4.42e-01h  1
  43 -5.8768502e+00 1.43e+00 6.27e+02  -6.0 2.23e+02    -  9.85e-01 1.00e+00h  1
  44 -5.8840138e+00 1.02e+00 1.59e+04  -6.0 2.09e+02    -  4.66e-01 6.24e-01h  1
  45 -5.8941776e+00 1.28e+00 1.97e+05  -6.0 2.14e+02    -  1.09e-01 1.00e+00h  1
  46 -5.8956627e+00 1.14e+00 3.16e+05  -6.0 2.75e+02    -  7.50e-01 1.37e-01h  1
  47 -5.8998874e+00 1.08e+00 2.37e+05  -6.0 3.13e+02    -  4.42e-01 3.50e-01h  1
  48r-5.8998874e+00 1.08e+00 1.00e+03   0.0 0.00e+00    -  0.00e+00 1.86e-07R  2
  49r-6.0819614e+00 1.07e+00 1.00e+03   0.0 5.80e+04    -  4.44e-06 1.67e-06f  1
iter    objective    inf_pr   inf_du lg(mu)  ||d||  lg(rg) alpha_du alpha_pr  ls
  50 -6.0765806e+00 1.04e+00 9.86e+05  -6.0 8.27e+00    -  6.40e-01 2.92e-02h  1
  51 -6.0038391e+00 6.19e-01 1.39e+07  -6.0 8.42e+00    -  2.92e-02 4.06e-01h  1
  52 -5.8976064e+00 1.54e-03 1.43e+04  -6.0 5.12e+00    -  6.82e-01 9.99e-01h  1
  53 -5.8976384e+00 9.61e-04 8.92e+03  -6.0 5.98e-01    -  9.78e-01 3.75e-01h  1
  54 -5.8981014e+00 3.03e-03 5.08e+02  -6.0 4.81e+00  -5.3 4.22e-01 1.00e+00f  1
  55 -5.8986101e+00 1.47e-02 1.62e+00  -6.0 2.23e+01    -  9.37e-01 1.00e+00h  1
  56 -5.9014145e+00 4.02e-01 1.43e+00  -6.0 1.12e+02    -  9.65e-01 1.00e+00h  1
  57 -5.9004913e+00 2.41e-02 5.04e+00  -6.0 3.40e+01    -  4.73e-01 1.00e+00h  1
  58 -5.9002564e+00 1.47e-04 1.12e-02  -6.0 2.31e+00    -  1.00e+00 1.00e+00h  1
  59 -5.9002471e+00 3.64e-06 6.15e-05  -6.0 2.97e-01    -  1.00e+00 1.00e+00h  1
iter    objective    inf_pr   inf_du lg(mu)  ||d||  lg(rg) alpha_du alpha_pr  ls
  60 -5.9002470e+00 3.47e-10 6.49e-09  -6.0 2.90e-03    -  1.00e+00 1.00e+00h  1
  61 -5.9002990e+00 3.83e-03 1.23e+02  -7.5 3.72e+01    -  9.56e-01 5.32e-01h  1
  62 -5.9003251e+00 4.86e-03 1.72e+01  -7.5 1.80e+01    -  1.00e+00 8.73e-01h  1
  63 -5.9003248e+00 8.04e-05 4.66e-02  -7.5 2.20e+00    -  1.00e+00 1.00e+00h  1
  64 -5.9003248e+00 3.18e-10 2.06e-09  -7.5 2.57e-03    -  1.00e+00 1.00e+00h  1
  65 -5.9003264e+00 1.62e-05 6.28e-01  -9.0 1.19e+00    -  9.29e-01 8.60e-01h  1
  66 -5.9003266e+00 4.37e-07 3.11e-01  -9.0 1.67e-01    -  9.14e-01 1.00e+00f  1
  67 -5.9003266e+00 2.84e-10 2.23e-08  -9.0 3.61e-05    -  1.00e+00 1.00e+00h  1
  68 -5.9003266e+00 1.82e-10 4.38e-10  -9.0 1.02e-05    -  1.00e+00 1.00e+00h  1

Number of Iterations....: 68

                                   (scaled)                 (unscaled)
Objective...............:  -4.6096301844154937e+00   -5.9003266360518323e+00
Dual infeasibility......:   4.3801981225377092e-10    5.6066535968482681e-10
Constraint violation....:   1.8232547210287470e-10    1.8232547210287470e-10
Complementarity.........:   9.1745980488625875e-10    1.1743485502544111e-09
Overall NLP error.......:   9.1745980488625875e-10    1.1743485502544111e-09


Number of objective function evaluations             = 97
Number of objective gradient evaluations             = 69
Number of equality constraint evaluations            = 97
Number of inequality constraint evaluations          = 97
Number of equality constraint Jacobian evaluations   = 71
Number of inequality constraint Jacobian evaluations = 71
Number of Lagrangian Hessian evaluations             = 68
Total CPU secs in IPOPT (w/o function evaluations)   =    161.467
Total CPU secs in NLP function evaluations           =      3.853

EXIT: Optimal Solution Found.
